objective value:                                  -71
t_x21                                               1 	(obj:-100)
t_y21_141                                           1 	(obj:1)
t_y21_54                                            1 	(obj:1)
t_y21_499                                           1 	(obj:1)
t_y21_478                                           1 	(obj:1)
t_y21_545                                           1 	(obj:1)
t_y21_277                                           1 	(obj:1)
t_y21_193                                           1 	(obj:1)
t_y8_21                                             1 	(obj:1)
t_y11_21                                            1 	(obj:1)
t_y21_63                                            1 	(obj:1)
t_y21_273                                           1 	(obj:1)
t_y21_554                                           1 	(obj:1)
t_y21_552                                           1 	(obj:1)
t_y21_428                                           1 	(obj:1)
t_y21_567                                           1 	(obj:1)
t_y21_36                                            1 	(obj:1)
t_y14_21                                            1 	(obj:1)
t_y21_480                                           1 	(obj:1)
t_y21_563                                           1 	(obj:1)
t_y21_402                                           1 	(obj:1)
t_y21_351                                           1 	(obj:1)
t_y21_401                                           1 	(obj:1)
t_y21_350                                           1 	(obj:1)
t_y21_400                                           1 	(obj:1)
t_y21_244                                           1 	(obj:1)
t_y21_327                                           1 	(obj:1)
t_y21_468                                           1 	(obj:1)
t_y21_466                                           1 	(obj:1)
t_y21_548                                           1 	(obj:1)
